33 4 1 0 3 5 24 8 25 21 30 0
34 1 0 -20 20 33 18 1 12 16 9 -26 26 33 32 9 30 12 1 -14 14 33 18 12 1 -6 6 32 25 24 1 29 12 -10 10 33 32 12 25 1 24 -4 18 4 19 13 24 22 15 -2 2 8 33 9 12 0
35 4 0 -32 34 26 6 10 21 2 28 17 -18 34 14 20 2 21 -12 34 10 22 2 23 -6 34 6 10 11 2 16 17 -4 34 2 4 11 10 14 15 0
36 0 34 35 4 6 7 23 12 26 29 0
